/*********************************************
 * OPL 12.6.0.0 Data
 * Author: Adrian Rodriguez Bazaga, Pau Rodriguez Esmerats
 * Creation Date: 06/12/2017 at 23:02:59
 *********************************************/

nNurses=175;
maxConsec=2;
maxPresence=7;
maxHours=5;
minHours=1;
hours=24;
demand= [33 35 51 44 35 51 44 36 34 18 4 8 5 9 6 8 4 2 2 1 19 36 18 37  ];
